min: c;

c = 3.03868145449551 * u2_t7_h3 + 2.83388659415194 * u2_t7_h4 + 3.78669502342799 * u2_t2_h5 + 3.78669502342799 * u2_t3_h5 + 3.78669502342799 * u2_t7_h5 + 4.10825762654695 * u2_t2_h6 + 4.10825762654695 * u2_t3_h6 + 4.10825762654695 * u2_t4_h6 + 4.10825762654695 * u2_t7_h6 + 4.10825762654695 * u2_t10_h6 + 4.02906412699088 * u2_t2_h7 + 4.02906412699088 * u2_t3_h7 + 4.02906412699088 * u2_t4_h7 + 4.02906412699088 * u2_t7_h7 + 4.02906412699088 * u2_t10_h7 + 5.77380552009481 * u2_t2_h8 + 5.77380552009481 * u2_t3_h8 + 5.77380552009481 * u2_t4_h8 + 5.77380552009481 * u2_t7_h8 + 5.77380552009481 * u2_t10_h8 + 4.77899552064733 * u2_t2_h9 + 4.77899552064733 * u2_t3_h9 + 4.77899552064733 * u2_t4_h9 + 4.77899552064733 * u2_t7_h9 + 4.77899552064733 * u2_t10_h9 + 5.35831108741521 * u2_t2_h10 + 5.35831108741521 * u2_t3_h10 + 5.35831108741521 * u2_t4_h10 + 5.35831108741521 * u2_t7_h10 + 5.35831108741521 * u2_t10_h10 + 4.04064348070935 * u2_t1_h11 + 4.04064348070935 * u2_t2_h11 + 4.04064348070935 * u2_t3_h11 + 4.04064348070935 * u2_t4_h11 + 4.04064348070935 * u2_t7_h11 + 4.04064348070935 * u2_t10_h11 + 6.40107569855414 * u2_t1_h12 + 6.40107569855414 * u2_t3_h12 + 6.40107569855414 * u2_t4_h12 + 6.40107569855414 * u2_t7_h12 + 4.05515428870401 * u2_t1_h13 + 4.05515428870401 * u2_t3_h13 + 4.05515428870401 * u2_t4_h13 + 4.05515428870401 * u2_t7_h13 + 4.05515428870401 * u2_t9_h13 + 5.42523174130584 * u2_t1_h14 + 5.42523174130584 * u2_t3_h14 + 5.42523174130584 * u2_t4_h14 + 5.42523174130584 * u2_t7_h14 + 5.42523174130584 * u2_t9_h14 + 5.88957136110413 * u2_t1_h15 + 5.88957136110413 * u2_t3_h15 + 5.88957136110413 * u2_t4_h15 + 5.88957136110413 * u2_t7_h15 + 5.88957136110413 * u2_t9_h15 + 5.89286631222572 * u2_t1_h16 + 5.89286631222572 * u2_t3_h16 + 5.89286631222572 * u2_t4_h16 + 5.89286631222572 * u2_t7_h16 + 5.89286631222572 * u2_t9_h16 + 5.90087723282768 * u2_t1_h17 + 5.90087723282768 * u2_t3_h17 + 5.90087723282768 * u2_t4_h17 + 5.90087723282768 * u2_t7_h17 + 5.90087723282768 * u2_t9_h17 + 6.58618015741137 * u2_t1_h18 + 6.58618015741137 * u2_t3_h18 + 6.58618015741137 * u2_t4_h18 + 6.58618015741137 * u2_t6_h18 + 6.58618015741137 * u2_t7_h18 + 5.82673916352951 * u2_t1_h19 + 5.82673916352951 * u2_t3_h19 + 5.82673916352951 * u2_t4_h19 + 5.82673916352951 * u2_t5_h19 + 5.82673916352951 * u2_t6_h19 + 5.82673916352951 * u2_t7_h19 + 5.42485489027962 * u2_t1_h20 + 5.42485489027962 * u2_t3_h20 + 5.42485489027962 * u2_t4_h20 + 5.42485489027962 * u2_t6_h20 + 5.42485489027962 * u2_t7_h20 + 5.75288594312889 * u2_t1_h21 + 5.75288594312889 * u2_t3_h21 + 5.75288594312889 * u2_t6_h21 + 5.75288594312889 * u2_t7_h21 + 5.75288594312889 * u2_t8_h21 + 5.35163581119166 * u2_t1_h22 + 5.35163581119166 * u2_t3_h22 + 5.35163581119166 * u2_t7_h22 + 5.35163581119166 * u2_t8_h22 + 5.93089443298634 * u2_t3_h23 + 5.93089443298634 * u2_t7_h23 + 5.93089443298634 * u2_t8_h23;
0 <= u2_t1_h11 <= 1;
0 <= u2_t1_h12 <= 1;
0 <= u2_t1_h13 <= 1;
0 <= u2_t1_h14 <= 1;
0 <= u2_t1_h15 <= 1;
0 <= u2_t1_h16 <= 1;
0 <= u2_t1_h17 <= 1;
0 <= u2_t1_h18 <= 1;
0 <= u2_t1_h19 <= 1;
0 <= u2_t1_h20 <= 1;
0 <= u2_t1_h21 <= 1;
0 <= u2_t1_h22 <= 1;
u2_t1_h11 + u2_t1_h12 + u2_t1_h13 + u2_t1_h14 + u2_t1_h15 + u2_t1_h16 + u2_t1_h17 + u2_t1_h18 + u2_t1_h19 + u2_t1_h20 + u2_t1_h21 + u2_t1_h22 = 2;
0 <= u2_t2_h5 <= 1;
0 <= u2_t2_h6 <= 1;
0 <= u2_t2_h7 <= 1;
0 <= u2_t2_h8 <= 1;
0 <= u2_t2_h9 <= 1;
0 <= u2_t2_h10 <= 1;
0 <= u2_t2_h11 <= 1;
u2_t2_h5 + u2_t2_h6 + u2_t2_h7 + u2_t2_h8 + u2_t2_h9 + u2_t2_h10 + u2_t2_h11 = 2;
0 <= u2_t3_h5 <= 1;
0 <= u2_t3_h6 <= 1;
0 <= u2_t3_h7 <= 1;
0 <= u2_t3_h8 <= 1;
0 <= u2_t3_h9 <= 1;
0 <= u2_t3_h10 <= 1;
0 <= u2_t3_h11 <= 1;
0 <= u2_t3_h12 <= 1;
0 <= u2_t3_h13 <= 1;
0 <= u2_t3_h14 <= 1;
0 <= u2_t3_h15 <= 1;
0 <= u2_t3_h16 <= 1;
0 <= u2_t3_h17 <= 1;
0 <= u2_t3_h18 <= 1;
0 <= u2_t3_h19 <= 1;
0 <= u2_t3_h20 <= 1;
0 <= u2_t3_h21 <= 1;
0 <= u2_t3_h22 <= 1;
0 <= u2_t3_h23 <= 1;
u2_t3_h5 + u2_t3_h6 + u2_t3_h7 + u2_t3_h8 + u2_t3_h9 + u2_t3_h10 + u2_t3_h11 + u2_t3_h12 + u2_t3_h13 + u2_t3_h14 + u2_t3_h15 + u2_t3_h16 + u2_t3_h17 + u2_t3_h18 + u2_t3_h19 + u2_t3_h20 + u2_t3_h21 + u2_t3_h22 + u2_t3_h23 = 1;
0 <= u2_t4_h6 <= 1;
0 <= u2_t4_h7 <= 1;
0 <= u2_t4_h8 <= 1;
0 <= u2_t4_h9 <= 1;
0 <= u2_t4_h10 <= 1;
0 <= u2_t4_h11 <= 1;
0 <= u2_t4_h12 <= 1;
0 <= u2_t4_h13 <= 1;
0 <= u2_t4_h14 <= 1;
0 <= u2_t4_h15 <= 1;
0 <= u2_t4_h16 <= 1;
0 <= u2_t4_h17 <= 1;
0 <= u2_t4_h18 <= 1;
0 <= u2_t4_h19 <= 1;
0 <= u2_t4_h20 <= 1;
u2_t4_h6 + u2_t4_h7 + u2_t4_h8 + u2_t4_h9 + u2_t4_h10 + u2_t4_h11 + u2_t4_h12 + u2_t4_h13 + u2_t4_h14 + u2_t4_h15 + u2_t4_h16 + u2_t4_h17 + u2_t4_h18 + u2_t4_h19 + u2_t4_h20 = 3;
0 <= u2_t5_h19 <= 1;
u2_t5_h19 = 1;
0 <= u2_t6_h18 <= 1;
0 <= u2_t6_h19 <= 1;
0 <= u2_t6_h20 <= 1;
0 <= u2_t6_h21 <= 1;
u2_t6_h18 + u2_t6_h19 + u2_t6_h20 + u2_t6_h21 = 2;
0 <= u2_t7_h3 <= 1;
0 <= u2_t7_h4 <= 1;
0 <= u2_t7_h5 <= 1;
0 <= u2_t7_h6 <= 1;
0 <= u2_t7_h7 <= 1;
0 <= u2_t7_h8 <= 1;
0 <= u2_t7_h9 <= 1;
0 <= u2_t7_h10 <= 1;
0 <= u2_t7_h11 <= 1;
0 <= u2_t7_h12 <= 1;
0 <= u2_t7_h13 <= 1;
0 <= u2_t7_h14 <= 1;
0 <= u2_t7_h15 <= 1;
0 <= u2_t7_h16 <= 1;
0 <= u2_t7_h17 <= 1;
0 <= u2_t7_h18 <= 1;
0 <= u2_t7_h19 <= 1;
0 <= u2_t7_h20 <= 1;
0 <= u2_t7_h21 <= 1;
0 <= u2_t7_h22 <= 1;
0 <= u2_t7_h23 <= 1;
u2_t7_h3 + u2_t7_h4 + u2_t7_h5 + u2_t7_h6 + u2_t7_h7 + u2_t7_h8 + u2_t7_h9 + u2_t7_h10 + u2_t7_h11 + u2_t7_h12 + u2_t7_h13 + u2_t7_h14 + u2_t7_h15 + u2_t7_h16 + u2_t7_h17 + u2_t7_h18 + u2_t7_h19 + u2_t7_h20 + u2_t7_h21 + u2_t7_h22 + u2_t7_h23 = 3;
0 <= u2_t8_h21 <= 1;
0 <= u2_t8_h22 <= 1;
0 <= u2_t8_h23 <= 1;
u2_t8_h21 + u2_t8_h22 + u2_t8_h23 = 2;
0 <= u2_t9_h13 <= 1;
0 <= u2_t9_h14 <= 1;
0 <= u2_t9_h15 <= 1;
0 <= u2_t9_h16 <= 1;
0 <= u2_t9_h17 <= 1;
u2_t9_h13 + u2_t9_h14 + u2_t9_h15 + u2_t9_h16 + u2_t9_h17 = 1;
0 <= u2_t10_h6 <= 1;
0 <= u2_t10_h7 <= 1;
0 <= u2_t10_h8 <= 1;
0 <= u2_t10_h9 <= 1;
0 <= u2_t10_h10 <= 1;
0 <= u2_t10_h11 <= 1;
u2_t10_h6 + u2_t10_h7 + u2_t10_h8 + u2_t10_h9 + u2_t10_h10 + u2_t10_h11 = 2;
